N = 10;
H = 5;
T = 2;

avail = array3d(1..N, 1..H, 1..T, [8, 3, 8, 6, 10, 10, 5, 7, 7, 6, 9, 10, 2, 4, 5, 5, 5, 0, 1, 4, 0, 2, 4, 1, 8, 5, 6, 9, 0, 2, 2, 10, 10, 9, 8, 5, 7, 1, 2, 7, 3, 0, 5, 7, 6, 9, 1, 0, 1, 10, 4, 3, 4, 1, 3, 4, 8, 3, 2, 2, 4, 0, 1, 10, 0, 2, 9, 1, 6, 2, 6, 8, 10, 3, 9, 2, 4, 1, 4, 3, 3, 8, 0, 6, 4, 0, 7, 4, 6, 5, 7, 1, 10, 8, 7, 10, 8, 5, 9, 10]);

r = array2d(1..H, 1..T, [6, 3, 3, 1, 2, 3, 3, 6, 1, 3]);
